c description: Perfect Matching Principle on 
c generator: CNFgen (0.9.0)
c copyright: (C) 2012-2020 Massimo Lauria <massimo.lauria@uniroma1.it>
c url: https://massimolauria.net/cnfgen
c
p cnf 60 249
1 0
-2 -3 0
-2 -4 0
-3 -4 0
2 3 4 0
-5 -6 0
-5 -7 0
-5 -8 0
-6 -7 0
-6 -8 0
-7 -8 0
5 6 7 8 0
-9 -10 0
9 10 0
-11 -12 0
11 12 0
-2 -13 0
2 13 0
-5 -14 0
-5 -15 0
-5 -16 0
-5 -17 0
-5 -18 0
-14 -15 0
-14 -16 0
-14 -17 0
-14 -18 0
-15 -16 0
-15 -17 0
-15 -18 0
-16 -17 0
-16 -18 0
-17 -18 0
5 14 15 16 17 18 0
-11 -19 0
11 19 0
-12 -20 0
-12 -21 0
-12 -22 0
-12 -23 0
-12 -24 0
-12 -25 0
-20 -21 0
-20 -22 0
-20 -23 0
-20 -24 0
-20 -25 0
-21 -22 0
-21 -23 0
-21 -24 0
-21 -25 0
-22 -23 0
-22 -24 0
-22 -25 0
-23 -24 0
-23 -25 0
-24 -25 0
12 20 21 22 23 24 25 0
-20 -26 0
-20 -27 0
-20 -28 0
-20 -29 0
-26 -27 0
-26 -28 0
-26 -29 0
-27 -28 0
-27 -29 0
-28 -29 0
20 26 27 28 29 0
-14 -30 0
-14 -31 0
-14 -32 0
-30 -31 0
-30 -32 0
-31 -32 0
14 30 31 32 0
-26 -33 0
-26 -34 0
-26 -35 0
-33 -34 0
-33 -35 0
-34 -35 0
26 33 34 35 0
-3 -36 0
-3 -37 0
-3 -38 0
-3 -39 0
-3 -40 0
-36 -37 0
-36 -38 0
-36 -39 0
-36 -40 0
-37 -38 0
-37 -39 0
-37 -40 0
-38 -39 0
-38 -40 0
-39 -40 0
3 36 37 38 39 40 0
-15 -41 0
-15 -42 0
-15 -43 0
-41 -42 0
-41 -43 0
-42 -43 0
15 41 42 43 0
-33 -41 0
-33 -44 0
-41 -44 0
33 41 44 0
-4 -19 0
-4 -45 0
-19 -45 0
4 19 45 0
-36 -46 0
-36 -47 0
-46 -47 0
36 46 47 0
-1 -9 0
-1 -13 0
-1 -27 0
-1 -34 0
-1 -37 0
-1 -48 0
-9 -13 0
-9 -27 0
-9 -34 0
-9 -37 0
-9 -48 0
-13 -27 0
-13 -34 0
-13 -37 0
-13 -48 0
-27 -34 0
-27 -37 0
-27 -48 0
-34 -37 0
-34 -48 0
-37 -48 0
1 9 13 27 34 37 48 0
-6 -45 0
6 45 0
-16 -21 0
-16 -38 0
-16 -46 0
-16 -49 0
-16 -50 0
-21 -38 0
-21 -46 0
-21 -49 0
-21 -50 0
-38 -46 0
-38 -49 0
-38 -50 0
-46 -49 0
-46 -50 0
-49 -50 0
16 21 38 46 49 50 0
-22 -42 0
-22 -51 0
-22 -52 0
-42 -51 0
-42 -52 0
-51 -52 0
22 42 51 52 0
-39 -51 0
-39 -53 0
-39 -54 0
-51 -53 0
-51 -54 0
-53 -54 0
39 51 53 54 0
-23 -30 0
-23 -48 0
-23 -55 0
-30 -48 0
-30 -55 0
-48 -55 0
23 30 48 55 0
-28 -35 0
-28 -44 0
-28 -52 0
-28 -56 0
-28 -57 0
-35 -44 0
-35 -52 0
-35 -56 0
-35 -57 0
-44 -52 0
-44 -56 0
-44 -57 0
-52 -56 0
-52 -57 0
-56 -57 0
28 35 44 52 56 57 0
-24 -49 0
-24 -53 0
-24 -58 0
-49 -53 0
-49 -58 0
-53 -58 0
24 49 53 58 0
-17 -29 0
-17 -31 0
-17 -47 0
-17 -56 0
-17 -59 0
-29 -31 0
-29 -47 0
-29 -56 0
-29 -59 0
-31 -47 0
-31 -56 0
-31 -59 0
-47 -56 0
-47 -59 0
-56 -59 0
17 29 31 47 56 59 0
-7 -18 0
-7 -43 0
-7 -55 0
-7 -58 0
-18 -43 0
-18 -55 0
-18 -58 0
-43 -55 0
-43 -58 0
-55 -58 0
7 18 43 55 58 0
-10 -60 0
10 60 0
-25 -32 0
-25 -50 0
-25 -59 0
-25 -60 0
-32 -50 0
-32 -59 0
-32 -60 0
-50 -59 0
-50 -60 0
-59 -60 0
25 32 50 59 60 0
-8 -40 0
-8 -54 0
-8 -57 0
-40 -54 0
-40 -57 0
-54 -57 0
8 40 54 57 0